benchmarks/VRPTW/TSPTW/solution/n100w20.004.txt.solution
1 97 90 58 40 43 27 23 24 7 72 52 67 78 35 73 62 39 65 86 30 28 26 37 68 83 8 76 10 81 21 82 9 12 94 44 42 45 13 98 75 32 46 93 49 36 55 88 79 74 57 38 63 3 18 48 14 11 84 69 92 34 96 51 53 66 54 25 59 17 95 60 31 85 15 22 33 80 16 99 47 89 6 87 56 64 91 41 5 20 50 71 19 2 61 29 4 77 101 100 70 
799
